p cnf 210 2224
1 2 3 4 5 6 7 0
8 9 10 11 12 13 14 0
15 16 17 18 19 20 21 0
22 23 24 25 26 27 28 0
29 30 31 32 33 34 35 0
36 37 38 39 40 41 42 0
43 44 45 46 47 48 49 0
50 51 52 53 54 55 56 0
57 58 59 60 61 62 63 0
64 65 66 67 68 69 70 0
71 72 73 74 75 76 77 0
78 79 80 81 82 83 84 0
85 86 87 88 89 90 91 0
92 93 94 95 96 97 98 0
99 100 101 102 103 104 105 0
106 107 108 109 110 111 112 0
113 114 115 116 117 118 119 0
120 121 122 123 124 125 126 0
127 128 129 130 131 132 133 0
134 135 136 137 138 139 140 0
141 142 143 144 145 146 147 0
148 149 150 151 152 153 154 0
155 156 157 158 159 160 161 0
162 163 164 165 166 167 168 0
169 170 171 172 173 174 175 0
176 177 178 179 180 181 182 0
183 184 185 186 187 188 189 0
190 191 192 193 194 195 196 0
197 198 199 200 201 202 203 0
204 205 206 207 208 209 210 0
-1 -2 0
-1 -3 0
-1 -4 0
-1 -5 0
-1 -6 0
-1 -7 0
-2 -3 0
-2 -4 0
-2 -5 0
-2 -6 0
-2 -7 0
-3 -4 0
-3 -5 0
-3 -6 0
-3 -7 0
-4 -5 0
-4 -6 0
-4 -7 0
-5 -6 0
-5 -7 0
-6 -7 0
-8 -9 0
-8 -10 0
-8 -11 0
-8 -12 0
-8 -13 0
-8 -14 0
-9 -10 0
-9 -11 0
-9 -12 0
-9 -13 0
-9 -14 0
-10 -11 0
-10 -12 0
-10 -13 0
-10 -14 0
-11 -12 0
-11 -13 0
-11 -14 0
-12 -13 0
-12 -14 0
-13 -14 0
-15 -16 0
-15 -17 0
-15 -18 0
-15 -19 0
-15 -20 0
-15 -21 0
-16 -17 0
-16 -18 0
-16 -19 0
-16 -20 0
-16 -21 0
-17 -18 0
-17 -19 0
-17 -20 0
-17 -21 0
-18 -19 0
-18 -20 0
-18 -21 0
-19 -20 0
-19 -21 0
-20 -21 0
-22 -23 0
-22 -24 0
-22 -25 0
-22 -26 0
-22 -27 0
-22 -28 0
-23 -24 0
-23 -25 0
-23 -26 0
-23 -27 0
-23 -28 0
-24 -25 0
-24 -26 0
-24 -27 0
-24 -28 0
-25 -26 0
-25 -27 0
-25 -28 0
-26 -27 0
-26 -28 0
-27 -28 0
-29 -30 0
-29 -31 0
-29 -32 0
-29 -33 0
-29 -34 0
-29 -35 0
-30 -31 0
-30 -32 0
-30 -33 0
-30 -34 0
-30 -35 0
-31 -32 0
-31 -33 0
-31 -34 0
-31 -35 0
-32 -33 0
-32 -34 0
-32 -35 0
-33 -34 0
-33 -35 0
-34 -35 0
-36 -37 0
-36 -38 0
-36 -39 0
-36 -40 0
-36 -41 0
-36 -42 0
-37 -38 0
-37 -39 0
-37 -40 0
-37 -41 0
-37 -42 0
-38 -39 0
-38 -40 0
-38 -41 0
-38 -42 0
-39 -40 0
-39 -41 0
-39 -42 0
-40 -41 0
-40 -42 0
-41 -42 0
-43 -44 0
-43 -45 0
-43 -46 0
-43 -47 0
-43 -48 0
-43 -49 0
-44 -45 0
-44 -46 0
-44 -47 0
-44 -48 0
-44 -49 0
-45 -46 0
-45 -47 0
-45 -48 0
-45 -49 0
-46 -47 0
-46 -48 0
-46 -49 0
-47 -48 0
-47 -49 0
-48 -49 0
-50 -51 0
-50 -52 0
-50 -53 0
-50 -54 0
-50 -55 0
-50 -56 0
-51 -52 0
-51 -53 0
-51 -54 0
-51 -55 0
-51 -56 0
-52 -53 0
-52 -54 0
-52 -55 0
-52 -56 0
-53 -54 0
-53 -55 0
-53 -56 0
-54 -55 0
-54 -56 0
-55 -56 0
-57 -58 0
-57 -59 0
-57 -60 0
-57 -61 0
-57 -62 0
-57 -63 0
-58 -59 0
-58 -60 0
-58 -61 0
-58 -62 0
-58 -63 0
-59 -60 0
-59 -61 0
-59 -62 0
-59 -63 0
-60 -61 0
-60 -62 0
-60 -63 0
-61 -62 0
-61 -63 0
-62 -63 0
-64 -65 0
-64 -66 0
-64 -67 0
-64 -68 0
-64 -69 0
-64 -70 0
-65 -66 0
-65 -67 0
-65 -68 0
-65 -69 0
-65 -70 0
-66 -67 0
-66 -68 0
-66 -69 0
-66 -70 0
-67 -68 0
-67 -69 0
-67 -70 0
-68 -69 0
-68 -70 0
-69 -70 0
-71 -72 0
-71 -73 0
-71 -74 0
-71 -75 0
-71 -76 0
-71 -77 0
-72 -73 0
-72 -74 0
-72 -75 0
-72 -76 0
-72 -77 0
-73 -74 0
-73 -75 0
-73 -76 0
-73 -77 0
-74 -75 0
-74 -76 0
-74 -77 0
-75 -76 0
-75 -77 0
-76 -77 0
-78 -79 0
-78 -80 0
-78 -81 0
-78 -82 0
-78 -83 0
-78 -84 0
-79 -80 0
-79 -81 0
-79 -82 0
-79 -83 0
-79 -84 0
-80 -81 0
-80 -82 0
-80 -83 0
-80 -84 0
-81 -82 0
-81 -83 0
-81 -84 0
-82 -83 0
-82 -84 0
-83 -84 0
-85 -86 0
-85 -87 0
-85 -88 0
-85 -89 0
-85 -90 0
-85 -91 0
-86 -87 0
-86 -88 0
-86 -89 0
-86 -90 0
-86 -91 0
-87 -88 0
-87 -89 0
-87 -90 0
-87 -91 0
-88 -89 0
-88 -90 0
-88 -91 0
-89 -90 0
-89 -91 0
-90 -91 0
-92 -93 0
-92 -94 0
-92 -95 0
-92 -96 0
-92 -97 0
-92 -98 0
-93 -94 0
-93 -95 0
-93 -96 0
-93 -97 0
-93 -98 0
-94 -95 0
-94 -96 0
-94 -97 0
-94 -98 0
-95 -96 0
-95 -97 0
-95 -98 0
-96 -97 0
-96 -98 0
-97 -98 0
-99 -100 0
-99 -101 0
-99 -102 0
-99 -103 0
-99 -104 0
-99 -105 0
-100 -101 0
-100 -102 0
-100 -103 0
-100 -104 0
-100 -105 0
-101 -102 0
-101 -103 0
-101 -104 0
-101 -105 0
-102 -103 0
-102 -104 0
-102 -105 0
-103 -104 0
-103 -105 0
-104 -105 0
-106 -107 0
-106 -108 0
-106 -109 0
-106 -110 0
-106 -111 0
-106 -112 0
-107 -108 0
-107 -109 0
-107 -110 0
-107 -111 0
-107 -112 0
-108 -109 0
-108 -110 0
-108 -111 0
-108 -112 0
-109 -110 0
-109 -111 0
-109 -112 0
-110 -111 0
-110 -112 0
-111 -112 0
-113 -114 0
-113 -115 0
-113 -116 0
-113 -117 0
-113 -118 0
-113 -119 0
-114 -115 0
-114 -116 0
-114 -117 0
-114 -118 0
-114 -119 0
-115 -116 0
-115 -117 0
-115 -118 0
-115 -119 0
-116 -117 0
-116 -118 0
-116 -119 0
-117 -118 0
-117 -119 0
-118 -119 0
-120 -121 0
-120 -122 0
-120 -123 0
-120 -124 0
-120 -125 0
-120 -126 0
-121 -122 0
-121 -123 0
-121 -124 0
-121 -125 0
-121 -126 0
-122 -123 0
-122 -124 0
-122 -125 0
-122 -126 0
-123 -124 0
-123 -125 0
-123 -126 0
-124 -125 0
-124 -126 0
-125 -126 0
-127 -128 0
-127 -129 0
-127 -130 0
-127 -131 0
-127 -132 0
-127 -133 0
-128 -129 0
-128 -130 0
-128 -131 0
-128 -132 0
-128 -133 0
-129 -130 0
-129 -131 0
-129 -132 0
-129 -133 0
-130 -131 0
-130 -132 0
-130 -133 0
-131 -132 0
-131 -133 0
-132 -133 0
-134 -135 0
-134 -136 0
-134 -137 0
-134 -138 0
-134 -139 0
-134 -140 0
-135 -136 0
-135 -137 0
-135 -138 0
-135 -139 0
-135 -140 0
-136 -137 0
-136 -138 0
-136 -139 0
-136 -140 0
-137 -138 0
-137 -139 0
-137 -140 0
-138 -139 0
-138 -140 0
-139 -140 0
-141 -142 0
-141 -143 0
-141 -144 0
-141 -145 0
-141 -146 0
-141 -147 0
-142 -143 0
-142 -144 0
-142 -145 0
-142 -146 0
-142 -147 0
-143 -144 0
-143 -145 0
-143 -146 0
-143 -147 0
-144 -145 0
-144 -146 0
-144 -147 0
-145 -146 0
-145 -147 0
-146 -147 0
-148 -149 0
-148 -150 0
-148 -151 0
-148 -152 0
-148 -153 0
-148 -154 0
-149 -150 0
-149 -151 0
-149 -152 0
-149 -153 0
-149 -154 0
-150 -151 0
-150 -152 0
-150 -153 0
-150 -154 0
-151 -152 0
-151 -153 0
-151 -154 0
-152 -153 0
-152 -154 0
-153 -154 0
-155 -156 0
-155 -157 0
-155 -158 0
-155 -159 0
-155 -160 0
-155 -161 0
-156 -157 0
-156 -158 0
-156 -159 0
-156 -160 0
-156 -161 0
-157 -158 0
-157 -159 0
-157 -160 0
-157 -161 0
-158 -159 0
-158 -160 0
-158 -161 0
-159 -160 0
-159 -161 0
-160 -161 0
-162 -163 0
-162 -164 0
-162 -165 0
-162 -166 0
-162 -167 0
-162 -168 0
-163 -164 0
-163 -165 0
-163 -166 0
-163 -167 0
-163 -168 0
-164 -165 0
-164 -166 0
-164 -167 0
-164 -168 0
-165 -166 0
-165 -167 0
-165 -168 0
-166 -167 0
-166 -168 0
-167 -168 0
-169 -170 0
-169 -171 0
-169 -172 0
-169 -173 0
-169 -174 0
-169 -175 0
-170 -171 0
-170 -172 0
-170 -173 0
-170 -174 0
-170 -175 0
-171 -172 0
-171 -173 0
-171 -174 0
-171 -175 0
-172 -173 0
-172 -174 0
-172 -175 0
-173 -174 0
-173 -175 0
-174 -175 0
-176 -177 0
-176 -178 0
-176 -179 0
-176 -180 0
-176 -181 0
-176 -182 0
-177 -178 0
-177 -179 0
-177 -180 0
-177 -181 0
-177 -182 0
-178 -179 0
-178 -180 0
-178 -181 0
-178 -182 0
-179 -180 0
-179 -181 0
-179 -182 0
-180 -181 0
-180 -182 0
-181 -182 0
-183 -184 0
-183 -185 0
-183 -186 0
-183 -187 0
-183 -188 0
-183 -189 0
-184 -185 0
-184 -186 0
-184 -187 0
-184 -188 0
-184 -189 0
-185 -186 0
-185 -187 0
-185 -188 0
-185 -189 0
-186 -187 0
-186 -188 0
-186 -189 0
-187 -188 0
-187 -189 0
-188 -189 0
-190 -191 0
-190 -192 0
-190 -193 0
-190 -194 0
-190 -195 0
-190 -196 0
-191 -192 0
-191 -193 0
-191 -194 0
-191 -195 0
-191 -196 0
-192 -193 0
-192 -194 0
-192 -195 0
-192 -196 0
-193 -194 0
-193 -195 0
-193 -196 0
-194 -195 0
-194 -196 0
-195 -196 0
-197 -198 0
-197 -199 0
-197 -200 0
-197 -201 0
-197 -202 0
-197 -203 0
-198 -199 0
-198 -200 0
-198 -201 0
-198 -202 0
-198 -203 0
-199 -200 0
-199 -201 0
-199 -202 0
-199 -203 0
-200 -201 0
-200 -202 0
-200 -203 0
-201 -202 0
-201 -203 0
-202 -203 0
-204 -205 0
-204 -206 0
-204 -207 0
-204 -208 0
-204 -209 0
-204 -210 0
-205 -206 0
-205 -207 0
-205 -208 0
-205 -209 0
-205 -210 0
-206 -207 0
-206 -208 0
-206 -209 0
-206 -210 0
-207 -208 0
-207 -209 0
-207 -210 0
-208 -209 0
-208 -210 0
-209 -210 0
-7 -14 0
-2 -11 0
-1 -10 0
-2 -9 0
-6 -21 0
-1 -19 0
-2 -18 0
-7 -16 0
-3 -38 0
-5 -41 0
-5 -36 0
-3 -39 0
-2 -44 0
-4 -47 0
-1 -44 0
-2 -47 0
-1 -50 0
-2 -55 0
-1 -54 0
-6 -50 0
-2 -62 0
-5 -63 0
-2 -57 0
-1 -62 0
-5 -70 0
-2 -69 0
-4 -67 0
-7 -69 0
-2 -75 0
-5 -73 0
-7 -73 0
-2 -74 0
-1 -82 0
-2 -79 0
-3 -84 0
-7 -78 0
-4 -93 0
-3 -97 0
-4 -98 0
-4 -95 0
-6 -105 0
-7 -100 0
-4 -100 0
-5 -99 0
-1 -112 0
-3 -109 0
-5 -106 0
-7 -109 0
-4 -113 0
-7 -118 0
-3 -116 0
-5 -113 0
-1 -124 0
-3 -121 0
-6 -120 0
-3 -123 0
-2 -133 0
-3 -132 0
-2 -127 0
-1 -128 0
-2 -147 0
-6 -141 0
-7 -143 0
-4 -145 0
-2 -148 0
-4 -151 0
-2 -152 0
-1 -149 0
-2 -161 0
-5 -156 0
-5 -158 0
-2 -156 0
-5 -165 0
-3 -166 0
-2 -164 0
-4 -163 0
-6 -174 0
-3 -172 0
-5 -172 0
-4 -171 0
-3 -181 0
-4 -178 0
-5 -176 0
-5 -180 0
-6 -188 0
-7 -188 0
-6 -183 0
-4 -184 0
-2 -195 0
-3 -194 0
-5 -191 0
-5 -190 0
-5 -201 0
-7 -203 0
-6 -202 0
-6 -197 0
-4 -205 0
-5 -208 0
-2 -208 0
-7 -206 0
-11 -16 0
-8 -18 0
-9 -20 0
-10 -16 0
-8 -24 0
-13 -22 0
-10 -26 0
-10 -28 0
-9 -33 0
-8 -30 0
-14 -32 0
-9 -30 0
-14 -37 0
-11 -40 0
-10 -42 0
-13 -37 0
-10 -50 0
-11 -55 0
-12 -55 0
-11 -52 0
-8 -57 0
-10 -58 0
-9 -57 0
-14 -57 0
-13 -77 0
-8 -73 0
-12 -73 0
-12 -76 0
-9 -79 0
-14 -81 0
-13 -83 0
-11 -80 0
-11 -86 0
-12 -90 0
-11 -87 0
-14 -87 0
-14 -92 0
-13 -92 0
-9 -94 0
-11 -93 0
-9 -103 0
-13 -105 0
-9 -102 0
-12 -100 0
-12 -112 0
-8 -110 0
-10 -111 0
-12 -110 0
-8 -118 0
-11 -115 0
-11 -118 0
-9 -117 0
-10 -126 0
-10 -124 0
-8 -120 0
-11 -124 0
-14 -135 0
-12 -135 0
-9 -139 0
-8 -136 0
-9 -141 0
-12 -147 0
-12 -143 0
-11 -142 0
-13 -153 0
-14 -149 0
-8 -149 0
-12 -150 0
-9 -161 0
-8 -160 0
-14 -157 0
-9 -160 0
-9 -163 0
-11 -167 0
-10 -167 0
-12 -162 0
-14 -172 0
-9 -174 0
-9 -172 0
-14 -170 0
-10 -177 0
-10 -176 0
-11 -176 0
-13 -180 0
-12 -183 0
-11 -189 0
-9 -183 0
-13 -184 0
-11 -192 0
-14 -193 0
-11 -194 0
-13 -191 0
-14 -200 0
-11 -201 0
-8 -199 0
-11 -202 0
-13 -207 0
-14 -206 0
-10 -207 0
-14 -204 0
-17 -22 0
-18 -24 0
-19 -23 0
-18 -26 0
-19 -30 0
-15 -29 0
-16 -31 0
-18 -32 0
-15 -36 0
-19 -38 0
-17 -36 0
-19 -37 0
-19 -44 0
-15 -45 0
-20 -46 0
-17 -45 0
-19 -53 0
-18 -53 0
-16 -55 0
-20 -53 0
-15 -58 0
-15 -57 0
-18 -59 0
-18 -57 0
-15 -69 0
-16 -70 0
-20 -65 0
-17 -67 0
-18 -72 0
-16 -74 0
-15 -74 0
-18 -76 0
-20 -78 0
-18 -79 0
-17 -83 0
-16 -80 0
-21 -85 0
-18 -87 0
-20 -85 0
-18 -88 0
-20 -92 0
-21 -96 0
-18 -97 0
-18 -94 0
-15 -99 0
-20 -102 0
-15 -101 0
-16 -102 0
-17 -109 0
-20 -111 0
-21 -109 0
-17 -110 0
-19 -114 0
-17 -113 0
-16 -119 0
-18 -114 0
-16 -123 0
-18 -121 0
-16 -121 0
-21 -122 0
-20 -134 0
-16 -140 0
-20 -139 0
-16 -138 0
-16 -146 0
-19 -141 0
-21 -143 0
-21 -147 0
-19 -153 0
-17 -151 0
-21 -148 0
-15 -154 0
-21 -161 0
-16 -155 0
-18 -160 0
-21 -156 0
-18 -168 0
-16 -167 0
-21 -166 0
-15 -167 0
-21 -178 0
-15 -178 0
-15 -180 0
-18 -178 0
-16 -188 0
-18 -188 0
-19 -189 0
-20 -184 0
-21 -192 0
-19 -194 0
-21 -191 0
-19 -193 0
-16 -203 0
-21 -199 0
-19 -198 0
-16 -199 0
-25 -40 0
-24 -39 0
-27 -37 0
-25 -41 0
-27 -43 0
-26 -43 0
-28 -44 0
-28 -48 0
-27 -53 0
-22 -51 0
-23 -53 0
-28 -52 0
-25 -63 0
-28 -57 0
-22 -61 0
-22 -62 0
-24 -70 0
-24 -66 0
-28 -66 0
-26 -66 0
-26 -75 0
-26 -73 0
-28 -71 0
-28 -72 0
-22 -83 0
-23 -78 0
-22 -78 0
-26 -78 0
-22 -85 0
-27 -91 0
-27 -86 0
-22 -91 0
-24 -95 0
-26 -98 0
-27 -96 0
-27 -97 0
-25 -101 0
-24 -105 0
-28 -101 0
-22 -103 0
-28 -106 0
-28 -109 0
-26 -110 0
-27 -112 0
-27 -119 0
-22 -113 0
-22 -115 0
-23 -119 0
-23 -120 0
-28 -126 0
-25 -126 0
-26 -126 0
-26 -132 0
-25 -130 0
-27 -133 0
-23 -131 0
-28 -136 0
-28 -140 0
-26 -139 0
-22 -138 0
-27 -142 0
-22 -142 0
-24 -147 0
-28 -147 0
-25 -148 0
-27 -149 0
-25 -150 0
-26 -148 0
-22 -155 0
-26 -157 0
-25 -159 0
-23 -161 0
-28 -166 0
-25 -166 0
-26 -166 0
-26 -165 0
-22 -175 0
-23 -170 0
-25 -170 0
-23 -173 0
-25 -183 0
-28 -183 0
-26 -184 0
-28 -185 0
-24 -195 0
-24 -193 0
-23 -193 0
-26 -194 0
-25 -198 0
-26 -202 0
-22 -197 0
-22 -199 0
-27 -206 0
-25 -206 0
-25 -204 0
-22 -204 0
-29 -37 0
-33 -41 0
-31 -41 0
-35 -40 0
-32 -44 0
-31 -44 0
-34 -46 0
-35 -46 0
-31 -55 0
-32 -53 0
-31 -51 0
-33 -53 0
-35 -64 0
-29 -67 0
-31 -65 0
-34 -67 0
-34 -76 0
-29 -71 0
-31 -73 0
-35 -72 0
-34 -81 0
-33 -81 0
-30 -84 0
-29 -82 0
-34 -88 0
-32 -87 0
-33 -86 0
-31 -87 0
-31 -96 0
-31 -95 0
-32 -98 0
-29 -93 0
-31 -105 0
-33 -99 0
-31 -99 0
-33 -101 0
-29 -106 0
-29 -108 0
-32 -110 0
-35 -112 0
-34 -117 0
-29 -118 0
-35 -118 0
-34 -116 0
-32 -124 0
-35 -120 0
-32 -123 0
-29 -124 0
-30 -132 0
-31 -130 0
-34 -131 0
-32 -131 0
-30 -140 0
-31 -135 0
-30 -137 0
-34 -137 0
-30 -147 0
-31 -142 0
-30 -143 0
-34 -146 0
-29 -154 0
-35 -153 0
-32 -151 0
-32 -154 0
-31 -159 0
-31 -157 0
-34 -155 0
-30 -159 0
-33 -167 0
-30 -167 0
-30 -165 0
-35 -165 0
-30 -170 0
-30 -171 0
-32 -175 0
-31 -173 0
-31 -180 0
-34 -176 0
-34 -181 0
-33 -178 0
-31 -185 0
-31 -184 0
-33 -184 0
-32 -187 0
-31 -194 0
-29 -196 0
-32 -195 0
-30 -195 0
-35 -200 0
-31 -198 0
-31 -199 0
-30 -202 0
-29 -205 0
-34 -210 0
-35 -205 0
-32 -204 0
-42 -44 0
-41 -48 0
-42 -45 0
-37 -48 0
-38 -56 0
-40 -53 0
-40 -55 0
-41 -55 0
-42 -62 0
-38 -59 0
-38 -62 0
-40 -63 0
-36 -64 0
-41 -65 0
-36 -69 0
-38 -69 0
-39 -75 0
-41 -74 0
-37 -74 0
-41 -76 0
-36 -83 0
-39 -84 0
-39 -81 0
-40 -83 0
-42 -89 0
-40 -86 0
-39 -89 0
-41 -91 0
-37 -97 0
-39 -98 0
-38 -92 0
-40 -95 0
-41 -99 0
-39 -103 0
-37 -102 0
-39 -100 0
-40 -108 0
-38 -107 0
-37 -109 0
-40 -109 0
-36 -114 0
-38 -115 0
-42 -115 0
-42 -119 0
-42 -125 0
-40 -121 0
-38 -121 0
-36 -122 0
-40 -128 0
-40 -129 0
-39 -130 0
-38 -130 0
-42 -141 0
-40 -146 0
-40 -145 0
-39 -144 0
-37 -152 0
-36 -153 0
-37 -154 0
-36 -148 0
-41 -160 0
-38 -159 0
-37 -155 0
-39 -156 0
-40 -167 0
-42 -162 0
-36 -165 0
-42 -164 0
-41 -172 0
-37 -174 0
-41 -174 0
-40 -175 0
-38 -181 0
-36 -178 0
-39 -179 0
-38 -176 0
-42 -188 0
-36 -186 0
-38 -188 0
-40 -185 0
-41 -193 0
-36 -195 0
-36 -190 0
-42 -194 0
-39 -203 0
-40 -198 0
-37 -200 0
-41 -197 0
-41 -204 0
-39 -210 0
-39 -205 0
-37 -209 0
-47 -54 0
-43 -50 0
-46 -56 0
-48 -50 0
-48 -61 0
-44 -60 0
-43 -57 0
-48 -57 0
-48 -67 0
-46 -64 0
-46 -65 0
-47 -65 0
-49 -81 0
-47 -82 0
-43 -83 0
-48 -82 0
-44 -91 0
-43 -88 0
-46 -87 0
-49 -86 0
-45 -98 0
-47 -97 0
-45 -92 0
-45 -97 0
-44 -100 0
-47 -99 0
-49 -102 0
-45 -99 0
-43 -107 0
-45 -107 0
-47 -109 0
-48 -107 0
-49 -117 0
-47 -116 0
-44 -113 0
-46 -117 0
-44 -121 0
-43 -124 0
-48 -121 0
-44 -120 0
-44 -129 0
-44 -132 0
-46 -132 0
-49 -130 0
-46 -136 0
-44 -140 0
-49 -134 0
-47 -135 0
-49 -144 0
-45 -145 0
-44 -144 0
-43 -141 0
-46 -148 0
-49 -152 0
-45 -149 0
-46 -150 0
-49 -159 0
-46 -159 0
-44 -161 0
-47 -156 0
-43 -167 0
-46 -165 0
-45 -163 0
-49 -163 0
-44 -170 0
-43 -169 0
-43 -175 0
-45 -171 0
-43 -176 0
-45 -182 0
-47 -182 0
-44 -181 0
-43 -195 0
-43 -192 0
-45 -194 0
-49 -193 0
-43 -201 0
-46 -199 0
-48 -200 0
-48 -197 0
-54 -66 0
-51 -67 0
-56 -65 0
-52 -64 0
-55 -71 0
-54 -77 0
-55 -74 0
-53 -73 0
-56 -81 0
-54 -78 0
-56 -82 0
-55 -79 0
-52 -89 0
-55 -86 0
-54 -85 0
-54 -87 0
-54 -92 0
-52 -92 0
-55 -96 0
-51 -94 0
-54 -103 0
-52 -103 0
-55 -104 0
-54 -104 0
-53 -106 0
-54 -106 0
-55 -107 0
-51 -110 0
-51 -114 0
-54 -114 0
-56 -115 0
-53 -114 0
-54 -121 0
-56 -124 0
-53 -120 0
-51 -122 0
-52 -133 0
-55 -130 0
-51 -132 0
-56 -131 0
-51 -138 0
-52 -137 0
-53 -139 0
-52 -136 0
-53 -141 0
-53 -146 0
-50 -143 0
-55 -143 0
-50 -148 0
-56 -154 0
-55 -149 0
-55 -153 0
-52 -159 0
-54 -161 0
-54 -160 0
-55 -159 0
-56 -165 0
-54 -168 0
-54 -165 0
-54 -164 0
-51 -174 0
-52 -175 0
-54 -170 0
-55 -175 0
-56 -176 0
-52 -178 0
-55 -177 0
-51 -182 0
-53 -187 0
-56 -186 0
-54 -187 0
-55 -189 0
-52 -193 0
-52 -192 0
-54 -196 0
-53 -194 0
-55 -199 0
-52 -197 0
-52 -200 0
-54 -199 0
-50 -205 0
-51 -204 0
-50 -208 0
-50 -207 0
-60 -65 0
-58 -64 0
-63 -69 0
-61 -64 0
-61 -86 0
-60 -87 0
-59 -89 0
-58 -86 0
-58 -92 0
-61 -98 0
-62 -94 0
-58 -97 0
-57 -101 0
-61 -103 0
-60 -102 0
-60 -103 0
-61 -116 0
-59 -116 0
-62 -115 0
-58 -114 0
-63 -126 0
-58 -120 0
-63 -124 0
-59 -121 0
-57 -148 0
-59 -153 0
-62 -154 0
-60 -154 0
-61 -174 0
-60 -171 0
-57 -173 0
-57 -169 0
-63 -178 0
-59 -180 0
-57 -178 0
-62 -178 0
-61 -183 0
-61 -184 0
-63 -188 0
-62 -188 0
-58 -203 0
-61 -198 0
-57 -197 0
-61 -201 0
-60 -210 0
-63 -205 0
-60 -208 0
-60 -206 0
-68 -71 0
-67 -75 0
-66 -75 0
-70 -72 0
-69 -84 0
-67 -81 0
-65 -81 0
-67 -80 0
-68 -90 0
-64 -85 0
-68 -85 0
-69 -87 0
-70 -97 0
-65 -94 0
-69 -96 0
-67 -95 0
-66 -100 0
-64 -100 0
-67 -99 0
-69 -101 0
-67 -112 0
-69 -112 0
-65 -110 0
-68 -110 0
-68 -116 0
-70 -118 0
-70 -115 0
-68 -114 0
-64 -122 0
-67 -123 0
-70 -121 0
-65 -122 0
-68 -128 0
-64 -130 0
-70 -129 0
-66 -131 0
-70 -146 0
-66 -146 0
-66 -147 0
-66 -145 0
-69 -152 0
-68 -150 0
-68 -153 0
-65 -152 0
-65 -159 0
-66 -160 0
-70 -158 0
-67 -160 0
-65 -166 0
-69 -166 0
-64 -167 0
-70 -163 0
-70 -170 0
-68 -172 0
-70 -172 0
-66 -174 0
-65 -178 0
-70 -181 0
-66 -176 0
-69 -177 0
-65 -183 0
-69 -185 0
-66 -189 0
-67 -189 0
-64 -190 0
-68 -195 0
-66 -196 0
-67 -192 0
-65 -197 0
-67 -202 0
-69 -203 0
-65 -198 0
-73 -78 0
-77 -81 0
-74 -84 0
-76 -82 0
-72 -91 0
-73 -90 0
-75 -88 0
-77 -91 0
-71 -97 0
-77 -97 0
-77 -92 0
-74 -92 0
-71 -101 0
-71 -105 0
-75 -104 0
-76 -101 0
-77 -110 0
-75 -111 0
-71 -108 0
-73 -111 0
-77 -116 0
-75 -118 0
-72 -115 0
-71 -113 0
-75 -121 0
-76 -126 0
-72 -120 0
-72 -126 0
-71 -130 0
-71 -132 0
-76 -128 0
-73 -127 0
-76 -139 0
-75 -139 0
-77 -138 0
-73 -136 0
-72 -142 0
-73 -147 0
-72 -145 0
-76 -145 0
-72 -151 0
-71 -150 0
-77 -150 0
-76 -148 0
-76 -161 0
-72 -158 0
-74 -159 0
-73 -160 0
-77 -168 0
-76 -165 0
-76 -167 0
-71 -167 0
-72 -173 0
-77 -175 0
-71 -173 0
-73 -174 0
-75 -180 0
-72 -181 0
-76 -177 0
-75 -182 0
-73 -185 0
-75 -186 0
-72 -187 0
-75 -189 0
-77 -199 0
-75 -199 0
-73 -200 0
-71 -201 0
-76 -205 0
-74 -205 0
-71 -207 0
-71 -210 0
-84 -86 0
-81 -87 0
-79 -88 0
-84 -90 0
-82 -95 0
-80 -97 0
-84 -97 0
-84 -95 0
-84 -102 0
-84 -101 0
-83 -105 0
-80 -100 0
-78 -107 0
-80 -107 0
-79 -106 0
-81 -108 0
-81 -116 0
-83 -114 0
-82 -114 0
-79 -118 0
-83 -122 0
-82 -120 0
-83 -121 0
-80 -122 0
-82 -130 0
-82 -132 0
-81 -130 0
-78 -132 0
-80 -143 0
-79 -144 0
-82 -141 0
-83 -147 0
-83 -152 0
-81 -151 0
-79 -153 0
-81 -148 0
-79 -156 0
-81 -158 0
-81 -160 0
-82 -155 0
-84 -168 0
-78 -163 0
-78 -167 0
-82 -167 0
-81 -174 0
-81 -170 0
-80 -172 0
-80 -171 0
-80 -180 0
-82 -181 0
-84 -176 0
-80 -181 0
-81 -189 0
-80 -185 0
-78 -187 0
-78 -189 0
-80 -192 0
-82 -193 0
-84 -190 0
-84 -196 0
-80 -201 0
-78 -203 0
-84 -200 0
-80 -200 0
-80 -210 0
-84 -207 0
-80 -204 0
-83 -207 0
-89 -94 0
-85 -93 0
-89 -92 0
-85 -95 0
-86 -101 0
-86 -99 0
-85 -103 0
-88 -102 0
-85 -108 0
-89 -111 0
-88 -109 0
-91 -111 0
-88 -116 0
-89 -118 0
-85 -118 0
-88 -118 0
-86 -132 0
-90 -130 0
-88 -127 0
-91 -133 0
-85 -134 0
-86 -134 0
-90 -138 0
-88 -140 0
-86 -142 0
-86 -144 0
-91 -141 0
-88 -145 0
-89 -149 0
-90 -151 0
-87 -148 0
-87 -149 0
-90 -158 0
-87 -157 0
-90 -156 0
-86 -156 0
-86 -164 0
-85 -165 0
-91 -166 0
-88 -168 0
-89 -172 0
-85 -169 0
-89 -171 0
-85 -173 0
-88 -177 0
-85 -177 0
-85 -179 0
-89 -181 0
-89 -186 0
-89 -185 0
-89 -183 0
-90 -187 0
-91 -194 0
-90 -195 0
-88 -194 0
-90 -192 0
-89 -199 0
-85 -198 0
-90 -199 0
-91 -203 0
-86 -208 0
-87 -205 0
-86 -206 0
-87 -206 0
-97 -101 0
-98 -102 0
-98 -105 0
-92 -99 0
-93 -110 0
-95 -106 0
-97 -111 0
-92 -108 0
-97 -114 0
-92 -118 0
-93 -118 0
-96 -117 0
-93 -120 0
-95 -121 0
-94 -121 0
-95 -124 0
-92 -133 0
-92 -132 0
-94 -128 0
-97 -130 0
-93 -134 0
-96 -138 0
-96 -137 0
-92 -135 0
-93 -145 0
-95 -147 0
-95 -146 0
-98 -142 0
-92 -148 0
-92 -150 0
-94 -149 0
-96 -149 0
-92 -157 0
-98 -157 0
-98 -161 0
-92 -155 0
-94 -164 0
-95 -164 0
-94 -167 0
-96 -165 0
-95 -174 0
-93 -169 0
-98 -175 0
-94 -173 0
-92 -179 0
-98 -178 0
-97 -179 0
-96 -176 0
-95 -188 0
-93 -185 0
-97 -186 0
-93 -189 0
-92 -190 0
-94 -191 0
-92 -193 0
-93 -191 0
-97 -203 0
-92 -203 0
-97 -197 0
-95 -202 0
-93 -204 0
-94 -208 0
-98 -205 0
-95 -205 0
-102 -108 0
-99 -112 0
-101 -106 0
-100 -111 0
-104 -113 0
-104 -116 0
-105 -116 0
-101 -116 0
-103 -126 0
-101 -125 0
-100 -124 0
-99 -125 0
-99 -128 0
-101 -132 0
-100 -131 0
-102 -127 0
-101 -139 0
-102 -137 0
-99 -139 0
-102 -135 0
-105 -141 0
-105 -144 0
-103 -142 0
-103 -141 0
-99 -149 0
-103 -150 0
-99 -150 0
-103 -153 0
-104 -160 0
-99 -161 0
-101 -158 0
-103 -158 0
-103 -166 0
-105 -164 0
-104 -167 0
-104 -162 0
-102 -173 0
-105 -174 0
-104 -172 0
-104 -169 0
-102 -177 0
-100 -177 0
-100 -176 0
-104 -181 0
-105 -185 0
-101 -188 0
-104 -184 0
-103 -186 0
-101 -190 0
-101 -192 0
-104 -191 0
-103 -196 0
-102 -200 0
-103 -200 0
-99 -199 0
-103 -203 0
-100 -207 0
-103 -205 0
-103 -207 0
-99 -207 0
-106 -120 0
-112 -125 0
-107 -121 0
-111 -122 0
-110 -131 0
-110 -127 0
-106 -132 0
-106 -129 0
-112 -138 0
-109 -139 0
-112 -134 0
-112 -135 0
-112 -146 0
-110 -147 0
-107 -141 0
-107 -147 0
-111 -153 0
-109 -148 0
-111 -151 0
-108 -148 0
-110 -155 0
-112 -160 0
-110 -156 0
-108 -156 0
-111 -164 0
-112 -166 0
-109 -163 0
-108 -165 0
-111 -175 0
-109 -173 0
-107 -170 0
-109 -174 0
-112 -183 0
-109 -187 0
-110 -189 0
-112 -187 0
-109 -190 0
-112 -194 0
-107 -190 0
-106 -190 0
-112 -197 0
-107 -198 0
-109 -199 0
-110 -203 0
-112 -204 0
-108 -210 0
-108 -205 0
-106 -206 0
-119 -121 0
-117 -120 0
-115 -120 0
-115 -124 0
-119 -131 0
-117 -127 0
-119 -129 0
-116 -130 0
-114 -138 0
-115 -135 0
-116 -135 0
-115 -134 0
-114 -142 0
-113 -147 0
-118 -144 0
-113 -146 0
-115 -148 0
-119 -154 0
-113 -154 0
-115 -153 0
-114 -174 0
-118 -174 0
-115 -175 0
-114 -173 0
-117 -188 0
-114 -183 0
-116 -186 0
-113 -184 0
-114 -191 0
-119 -193 0
-113 -194 0
-113 -196 0
-119 -197 0
-119 -200 0
-118 -198 0
-116 -203 0
-115 -209 0
-113 -206 0
-119 -205 0
-116 -210 0
-125 -129 0
-122 -130 0
-122 -127 0
-126 -127 0
-125 -136 0
-123 -138 0
-126 -140 0
-123 -140 0
-126 -146 0
-126 -147 0
-125 -144 0
-123 -147 0
-121 -150 0
-123 -152 0
-121 -152 0
-122 -154 0
-125 -160 0
-123 -155 0
-122 -161 0
-124 -158 0
-123 -164 0
-125 -164 0
-125 -165 0
-124 -164 0
-125 -174 0
-120 -173 0
-120 -171 0
-126 -172 0
-126 -179 0
-121 -181 0
-125 -176 0
-123 -177 0
-123 -184 0
-125 -186 0
-120 -186 0
-122 -187 0
-125 -201 0
-121 -198 0
-124 -197 0
-126 -203 0
-123 -210 0
-122 -209 0
-125 -209 0
-120 -210 0
-132 -135 0
-127 -140 0
-129 -140 0
-129 -139 0
-131 -145 0
-131 -143 0
-133 -141 0
-130 -146 0
-131 -151 0
-133 -149 0
-128 -153 0
-129 -154 0
-127 -160 0
-128 -159 0
-131 -158 0
-128 -158 0
-127 -165 0
-133 -166 0
-127 -167 0
-129 -164 0
-133 -171 0
-131 -171 0
-128 -171 0
-129 -171 0
-133 -177 0
-127 -182 0
-131 -182 0
-129 -182 0
-131 -189 0
-133 -186 0
-129 -184 0
-129 -188 0
-132 -207 0
-132 -208 0
-127 -206 0
-133 -205 0
-138 -143 0
-139 -146 0
-140 -144 0
-140 -145 0
-138 -151 0
-135 -153 0
-134 -152 0
-139 -154 0
-134 -156 0
-137 -155 0
-139 -156 0
-138 -158 0
-138 -163 0
-140 -164 0
-137 -162 0
-139 -166 0
-139 -186 0
-134 -185 0
-135 -186 0
-137 -186 0
-135 -196 0
-137 -192 0
-138 -190 0
-135 -192 0
-135 -203 0
-136 -202 0
-135 -198 0
-138 -202 0
-136 -209 0
-137 -206 0
-139 -209 0
-138 -206 0
-147 -148 0
-145 -148 0
-143 -152 0
-143 -149 0
-146 -155 0
-141 -158 0
-146 -161 0
-146 -157 0
-145 -168 0
-144 -168 0
-146 -167 0
-146 -164 0
-146 -172 0
-141 -171 0
-145 -171 0
-142 -172 0
-146 -176 0
-145 -176 0
-143 -179 0
-147 -177 0
-141 -183 0
-143 -189 0
-143 -186 0
-146 -185 0
-141 -196 0
-144 -195 0
-145 -194 0
-146 -192 0
-146 -201 0
-142 -199 0
-143 -200 0
-143 -202 0
-142 -207 0
-144 -207 0
-147 -208 0
-143 -209 0
-151 -159 0
-150 -156 0
-148 -157 0
-154 -159 0
-151 -165 0
-150 -164 0
-149 -165 0
-152 -168 0
-153 -170 0
-152 -169 0
-148 -175 0
-152 -173 0
-148 -178 0
-153 -177 0
-153 -180 0
-151 -176 0
-149 -189 0
-148 -187 0
-148 -188 0
-150 -189 0
-153 -194 0
-152 -190 0
-149 -192 0
-149 -196 0
-150 -199 0
-152 -199 0
-148 -202 0
-149 -203 0
-149 -204 0
-150 -206 0
-154 -205 0
-151 -204 0
-160 -164 0
-161 -163 0
-161 -162 0
-159 -163 0
-158 -172 0
-160 -173 0
-161 -172 0
-159 -172 0
-159 -178 0
-156 -179 0
-155 -176 0
-157 -180 0
-159 -183 0
-159 -186 0
-157 -189 0
-160 -188 0
-156 -192 0
-157 -192 0
-156 -191 0
-160 -192 0
-158 -203 0
-155 -197 0
-156 -197 0
-159 -197 0
-160 -206 0
-158 -206 0
-160 -205 0
-157 -210 0
-168 -172 0
-168 -169 0
-166 -170 0
-165 -175 0
-162 -176 0
-164 -176 0
-167 -179 0
-168 -176 0
-166 -193 0
-168 -194 0
-167 -191 0
-166 -194 0
-163 -198 0
-167 -198 0
-166 -201 0
-165 -202 0
-168 -209 0
-165 -208 0
-165 -210 0
-164 -207 0
-173 -176 0
-170 -182 0
-171 -179 0
-173 -181 0
-175 -186 0
-172 -186 0
-169 -188 0
-173 -186 0
-173 -196 0
-169 -190 0
-172 -194 0
-173 -190 0
-173 -203 0
-170 -203 0
-171 -203 0
-170 -200 0
-175 -208 0
-175 -205 0
-172 -208 0
-174 -208 0
-179 -183 0
-181 -185 0
-182 -187 0
-177 -184 0
-178 -196 0
-176 -193 0
-180 -192 0
-177 -192 0
-179 -203 0
-176 -200 0
-176 -198 0
-177 -197 0
-181 -205 0
-181 -209 0
-179 -205 0
-181 -210 0
-189 -190 0
-183 -191 0
-183 -194 0
-189 -191 0
-183 -197 0
-184 -198 0
-185 -198 0
-183 -198 0
-195 -200 0
-191 -198 0
-195 -197 0
-195 -198 0
-194 -204 0
-194 -206 0
-190 -204 0
-191 -208 0
-201 -210 0
-201 -205 0
-197 -205 0
-201 -208 0
